p cnf 50 20
x 1 5 7 -8 -9 -11 -13 18 19 20 22 -26 -27 -33 40 -41 44 47 0
x -2 3 -4 -8 -9 10 13 17 -20 21 22 23 25 26 -27 -30 -32 33 -38 41 -43 -44 45 -46 0
x 2 -3 -4 -5 6 -7 -16 -17 18 -19 -20 21 -22 23 24 25 27 28 29 -31 32 -35 37 38 39 -41 42 43 -45 -46 -47 48 0
x -6 8 -11 -13 15 17 20 24 27 -28 -33 -39 40 41 44 45 -46 -47 0
x 1 2 -4 9 -13 17 -21 24 25 -27 -29 34 -35 36 -37 45 46 -49 50 0
x 1 -2 3 5 -7 8 -9 14 15 17 19 -20 -24 -26 -27 30 32 -35 -38 39 40 41 42 -43 45 -46 47 0
x -6 -9 -17 -18 -19 -20 21 24 25 -26 30 32 33 -36 -37 -40 46 -48 49 -50 0
x 1 2 -3 4 6 7 8 -13 15 16 -18 22 25 -28 -35 -36 -39 41 42 45 -46 47 49 0
x -1 2 -3 7 8 9 -10 -11 -14 15 -17 18 -19 21 22 23 -24 25 27 29 -32 35 37 43 44 45 46 -48 0
x -3 5 -7 -9 10 12 -13 14 -15 -16 18 -19 20 -21 26 29 -31 34 -38 -39 41 -43 -44 -47 0
x -1 -2 3 4 5 -9 10 -12 -13 15 -21 25 27 35 -36 41 -44 48 50 0
x -5 7 -9 -13 14 15 -16 -21 -23 -25 -28 -29 -30 -31 32 -35 36 38 -41 42 43 44 45 48 49 -50 0
x 1 -2 3 4 9 10 11 -12 13 15 20 21 -23 25 28 -29 30 -32 -33 35 36 -37 -41 44 47 48 -50 0
x -1 -2 3 9 -12 -15 16 18 25 -26 28 30 -33 34 -37 40 41 42 43 -44 45 46 -47 0
x -2 3 -5 -8 -14 15 17 18 -24 25 29 31 32 33 -34 -36 39 47 48 -49 0
x 2 3 -5 6 7 -8 -10 13 14 -18 19 20 22 25 28 29 -30 31 -33 -35 37 39 40 45 -48 49 0
x 3 -9 -12 15 -16 24 -26 28 -30 32 36 -37 -38 40 -42 44 -46 49 0
x 1 -3 -4 -5 -6 9 -10 11 -12 -13 -14 -15 16 17 -18 -19 21 -23 24 -25 34 35 37 38 39 -44 -45 47 -48 49 50 0
x 1 2 -4 6 -7 -10 13 -14 -17 20 -23 26 -27 29 32 33 34 -35 -37 39 41 -42 -43 45 -46 -48 0
x 1 2 -3 8 9 -10 -12 13 -14 17 -18 22 -24 25 26 -28 29 -30 -33 -35 36 -37 38 44 -49 0
g -20